60
18 15
20 85
18 41
22 72
11 64
30 83
12 10
20 41
10 37
7 4
29 98
5 65
28 50
26 8
3 59
3 32
9 60
22 64
6 36
11 83
26 76
7 91
13 69
17 96
2 72
22 53
9 100
21 66
23 7
7 46
28 37
29 90
15 46
23 100
3 40
27 84
6 48
26 56
21 8
2 24
27 2
13 53
18 45
3 53
19 42
19 20
11 28
13 27
6 65
7 5
30 60
19 75
20 65
23 26
10 81
24 4
16 26
2 87
1 25
26 25
